c uprop, v00.0, 
c reading from data/prog567.c.cnf
c done reading: 0
p cnf 48 155
-28 -47 0
28 47 0
35 -47 0
-35 47 0
-27 35 0
27 -35 0
-25 -35 0
25 35 0
-27 -47 0
22 -47 0
22 -27 0
-22 27 47 0
-33 -47 0
33 47 0
-18 -25 0
18 25 0
-22 -23 0
22 23 0
-16 -20 0
-17 -20 0
16 17 20 0
16 17 -32 0
-16 -17 -32 0
-16 17 32 0
16 -17 32 0
20 -38 0
-20 38 0
-20 -31 0
20 31 0
-36 38 0
36 -38 0
-38 -39 0
38 39 0
36 -41 0
-36 41 0
-36 -42 0
36 42 0
41 -43 0
-41 43 0
-41 -44 0
41 44 0
43 -45 0
-43 45 0
-43 -46 0
43 46 0
-19 45 0
19 -45 0
-37 -45 0
37 45 0
17 -24 0
16 -24 0
-16 -17 24 0
-16 -17 -48 0
16 17 -48 0
16 -17 48 0
-16 17 48 0
-17 -24 29 0
17 -29 0
24 -29 0
17 24 -29 0
-26 -29 0
17 -26 -29 0
24 -26 -29 0
-17 26 29 0
-24 26 29 0
17 24 -26 0
14 -29 0
-14 29 0
-12 26 0
-12 16 0
12 -16 -26 0
-16 -26 0
16 26 0
11 -14 -17 0
11 -12 -14 0
11 -12 -17 0
-11 14 17 0
-11 12 14 0
-11 12 17 0
-10 -11 14 0
-10 -11 17 0
-10 -11 12 0
10 11 -14 0
10 11 -17 0
10 11 -12 0
10 -12 -14 -17 0
-10 12 14 17 0
9 -11 0
-9 11 0
-8 10 0
-8 16 0
8 -10 -16 0
-10 -16 0
10 16 0
7 -9 -17 0
7 -8 -9 0
7 -8 -17 0
-7 9 17 0
-7 8 9 0
-7 8 17 0
-6 -7 9 0
-6 -7 17 0
-6 -7 8 0
6 7 -9 0
6 7 -17 0
6 7 -8 0
6 -8 -9 -17 0
-6 8 9 17 0
5 -7 0
-5 7 0
6 -30 0
16 -30 0
-6 -16 30 0
-6 -16 -34 0
6 16 -34 0
-6 16 34 0
6 -16 34 0
-5 -17 0
-5 -30 0
-17 -30 0
-5 40 0
-17 40 0
-30 40 0
-5 -17 -30 40 0
5 17 30 -40 0
-13 -16 0
-13 -48 0
13 16 48 0
16 -21 48 0
-16 -21 -48 0
-16 21 48 0
16 21 -48 0
13 -15 0
-13 15 0
-3 -34 0
3 34 0
-2 -40 0
2 40 0
-1 47 0
-1 16 0
1 -16 -47 0
16 -47 0
-16 47 0
-1 -48 0
1 48 0
4 -25 -34 0
4 -25 0
4 -34 0
-4 25 34 0
-4 25 0
-4 34 0
-22 -40 0
-4 -22 0
-4 -40 0
4 22 40 0
